(set-logic LIA)
(declare-fun coord_x0 () Int)
(declare-fun coord_x1 () Int)
(declare-fun coord_x2 () Int)
(declare-fun coord_x3 () Int)
(declare-fun coord_y0 () Int)
(declare-fun coord_y1 () Int)
(declare-fun coord_y2 () Int)
(declare-fun coord_y3 () Int)
(declare-fun l () Int)
(assert (and (>= coord_x0 0) (<= coord_x0 5)))
(assert (and (>= coord_x1 0) (<= coord_x1 5)))
(assert (and (>= coord_x2 0) (<= coord_x2 5)))
(assert (and (>= coord_x3 0) (<= coord_x3 5)))
(assert (and (>= coord_y0 0) (<= coord_y0 13)))
(assert (and (>= coord_y1 0) (<= coord_y1 13)))
(assert (and (>= coord_y2 0) (<= coord_y2 13)))
(assert (and (>= coord_y3 0) (<= coord_y3 13)))
(assert (and (>= l 8) (<= l 16)))
(assert (or (<= (+ coord_x0 3) coord_x1) (<= (+ coord_y0 3) coord_y1) (>= (- coord_x0 3) coord_x1) (>= (- coord_y0 5) coord_y1)))
(assert (or (<= (+ coord_x0 3) coord_x2) (<= (+ coord_y0 3) coord_y2) (>= (- coord_x0 5) coord_x2) (>= (- coord_y0 3) coord_y2)))
(assert (or (<= (+ coord_x0 3) coord_x3) (<= (+ coord_y0 3) coord_y3) (>= (- coord_x0 5) coord_x3) (>= (- coord_y0 5) coord_y3)))
(assert (or (<= (+ coord_x1 3) coord_x2) (<= (+ coord_y1 5) coord_y2) (>= (- coord_x1 5) coord_x2) (>= (- coord_y1 3) coord_y2)))
(assert (or (<= (+ coord_x1 3) coord_x3) (<= (+ coord_y1 5) coord_y3) (>= (- coord_x1 5) coord_x3) (>= (- coord_y1 5) coord_y3)))
(assert (or (<= (+ coord_x2 5) coord_x3) (<= (+ coord_y2 3) coord_y3) (>= (- coord_x2 5) coord_x3) (>= (- coord_y2 5) coord_y3)))
(assert (and (<= (+ coord_x0 3) 8) (<= (+ coord_y0 3) l)))
(assert (and (<= (+ coord_x1 3) 8) (<= (+ coord_y1 5) l)))
(assert (and (<= (+ coord_x2 5) 8) (<= (+ coord_y2 3) l)))
(assert (and (<= (+ coord_x3 5) 8) (<= (+ coord_y3 5) l)))
(assert (<= (+ (ite (and (<= coord_y0 3) (< 3 (+ coord_y0 3))) 3 0) (ite (and (<= coord_y1 3) (< 3 (+ coord_y1 5))) 3 0) (ite (and (<= coord_y2 3) (< 3 (+ coord_y2 3))) 5 0) (ite (and (<= coord_y3 3) (< 3 (+ coord_y3 5))) 5 0)) 8))
(assert (<= (+ (ite (and (<= coord_y0 3) (< 3 (+ coord_y0 3))) 3 0) (ite (and (<= coord_y1 3) (< 3 (+ coord_y1 5))) 3 0) (ite (and (<= coord_y2 3) (< 3 (+ coord_y2 3))) 5 0) (ite (and (<= coord_y3 3) (< 3 (+ coord_y3 5))) 5 0)) 8))
(assert (<= (+ (ite (and (<= coord_y0 5) (< 5 (+ coord_y0 3))) 3 0) (ite (and (<= coord_y1 5) (< 5 (+ coord_y1 5))) 3 0) (ite (and (<= coord_y2 5) (< 5 (+ coord_y2 3))) 5 0) (ite (and (<= coord_y3 5) (< 5 (+ coord_y3 5))) 5 0)) 8))
(assert (<= (+ (ite (and (<= coord_y0 5) (< 5 (+ coord_y0 3))) 3 0) (ite (and (<= coord_y1 5) (< 5 (+ coord_y1 5))) 3 0) (ite (and (<= coord_y2 5) (< 5 (+ coord_y2 3))) 5 0) (ite (and (<= coord_y3 5) (< 5 (+ coord_y3 5))) 5 0)) 8))
(assert (<= (+ (ite (and (<= coord_x0 3) (< 3 (+ coord_x0 3))) 3 0) (ite (and (<= coord_x1 3) (< 3 (+ coord_x1 3))) 5 0) (ite (and (<= coord_x2 3) (< 3 (+ coord_x2 5))) 3 0) (ite (and (<= coord_x3 3) (< 3 (+ coord_x3 5))) 5 0)) l))
(assert (<= (+ (ite (and (<= coord_x0 5) (< 5 (+ coord_x0 3))) 3 0) (ite (and (<= coord_x1 5) (< 5 (+ coord_x1 3))) 5 0) (ite (and (<= coord_x2 5) (< 5 (+ coord_x2 5))) 3 0) (ite (and (<= coord_x3 5) (< 5 (+ coord_x3 5))) 5 0)) l))
(assert (<= (+ (ite (and (<= coord_x0 3) (< 3 (+ coord_x0 3))) 3 0) (ite (and (<= coord_x1 3) (< 3 (+ coord_x1 3))) 5 0) (ite (and (<= coord_x2 3) (< 3 (+ coord_x2 5))) 3 0) (ite (and (<= coord_x3 3) (< 3 (+ coord_x3 5))) 5 0)) l))
(assert (<= (+ (ite (and (<= coord_x0 5) (< 5 (+ coord_x0 3))) 3 0) (ite (and (<= coord_x1 5) (< 5 (+ coord_x1 3))) 5 0) (ite (and (<= coord_x2 5) (< 5 (+ coord_x2 5))) 3 0) (ite (and (<= coord_x3 5) (< 5 (+ coord_x3 5))) 5 0)) l))
(assert (ite (and (= 3 3) (= 3 5)) (<= coord_x0 coord_x1) true))
(assert (ite (and (= 3 5) (= 3 3)) (<= coord_x0 coord_x2) true))
(assert (ite (and (= 3 5) (= 3 5)) (<= coord_x0 coord_x3) true))
(assert (ite (and (= 3 5) (= 5 3)) (<= coord_x1 coord_x2) true))
(assert (ite (and (= 3 5) (= 5 5)) (<= coord_x1 coord_x3) true))
(assert (ite (and (= 5 5) (= 3 5)) (<= coord_x2 coord_x3) true))
(assert (= coord_x3 0))
(assert (= coord_y3 0))
(check-sat)
(get-model)
